VER
4

OBJSENSE
MIN


QKDCONES
1 40
8 2 32 8 0
0 0 0 0.31622776601683794
0 2 1 0.31622776601683794
0 20 2 0.31622776601683794
0 22 3 0.31622776601683794
1 9 4 0.9486832980505138
1 11 5 0.9486832980505138
1 29 6 0.9486832980505138
1 31 7 0.9486832980505138
32 2 32 32 0
0 0 0 1.0
0 1 1 1.0
0 2 2 1.0
0 3 3 1.0
0 4 4 1.0
0 5 5 1.0
0 6 6 1.0
0 7 7 1.0
0 8 8 1.0
0 9 9 1.0
0 10 10 1.0
0 11 11 1.0
0 12 12 1.0
0 13 13 1.0
0 14 14 1.0
0 15 15 1.0
1 16 16 1.0
1 17 17 1.0
1 18 18 1.0
1 19 19 1.0
1 20 20 1.0
1 21 21 1.0
1 22 22 1.0
1 23 23 1.0
1 24 24 1.0
1 25 25 1.0
1 26 26 1.0
1 27 27 1.0
1 28 28 1.0
1 29 29 1.0
1 30 30 1.0
1 31 31 1.0

VAR
65 1
@0:HVECQKD 65

CON
21 1
L= 21

OBJACOORD
1
0 1.0

ACOORD
54
0 1 1.0
0 4 1.0
1 5 1.0
1 12 1.0
2 17 1.0
2 28 1.0
3 37 1.0
3 52 1.0
4 6 -1.0
4 13 -1.0
5 9 1.0
5 16 1.0
6 21 1.0
6 32 1.0
7 41 1.0
7 56 1.0
8 18 -1.0
8 29 -1.0
9 22 -1.0
9 33 -1.0
10 25 1.0
10 36 1.0
11 45 1.0
11 60 1.0
12 38 -1.0
12 53 -1.0
13 42 -1.0
13 57 -1.0
14 46 -1.0
14 61 -1.0
15 49 1.0
15 64 1.0
16 4 1.0
16 9 1.0
17 25 0.4999999999999999
17 34 -0.7071067811865475
17 36 0.4999999999999999
17 49 0.4999999999999999
17 62 0.7071067811865475
17 64 0.4999999999999999
18 2 1.414213562373095
18 14 -1.414213562373095
19 25 1.0
19 36 -1.0
19 49 -1.0
19 64 1.0
20 1 1.0
20 4 1.0
20 9 1.0
20 16 1.0
20 25 1.0
20 36 1.0
20 49 1.0
20 64 1.0

BCOORD
11
0 0.05
2 0.15
3 0.15
5 0.05
6 0.15
7 -0.15
10 0.44999999999999996
15 0.44999999999999996
16 0.003
17 0.027
20 1.0
